language Essence 1.3

letting class be function(1 --> 5, 2 --> 2, 3 --> 4, 4 --> 1, 5 --> 1, 6 --> 3)
letting deck_length be 78
letting deck_width be 79
letting length be function(1 --> 3, 2 --> 46, 3 --> 7, 4 --> 31, 5 --> 49, 6 --> 1)
letting n_classes be 5
letting n_containers be 6
letting separation be function({3, 4} --> 49, {3, 5} --> 10)
letting width be function(1 --> 49, 2 --> 15, 3 --> 17, 4 --> 51, 5 --> 24, 6 --> 23)
